c defined variables: 6 15 23 28 32 41 45 54 58 66 71 75 83 87 92 96 100 109 113 122 126 130 138 143 147 151 160 164 168 177 181 190 194 203 223 235 239 246 250 257 261 268 272 276 283 287 291 295 299 320 328 335 350 357 365 372 382 389 393 403 407 416 417 421 424 426 427 431 432 433 436 437 438 439 443 444 445 448 449 450 451 452 453 457 458 459 460 461 464 465 466 467 468 469 473 474 475 476 477 480 481 482 483 484 485 489 490 491 492 493 496 497 498 499 500 501 505 506 507 508 509 512 513 514 515 516 517 518 519 524 525 526 527 528 529 532 533 534 535 536 537 538 539 543 544 545 546 547 548 549 552 553 554 555 556 557 558 559 564 565 566 567 568 569 572 573 574 575 576 577 578 579 583 584 585 586 587 588 589 592 593 594 595 596 597 598 599 600 601 605 606 609 610 611 612 613 616 617 618 619 620 621 622 623 624 625 629 630 631 632 633 634 635 636 637 642 643 644 645 646 647 648 649 650 654 655 656 657 658 659 660 661 662 663 664 668 669 670 671 672 673 674 675 676 677 678 679 680 681 686 687 688 689 690 691 692 693 694 695 696 697 698 699 700 703 
p cnf 2279 2633
a 402 396 368 319 323 331 327 338 334 349 341 353 344 260 253 249 245 74 78 65 69 52 61 48 57 39 44 121 134 371 375 356 264 364 360 53 62 70 79 91 104 108 117 271 378 381 399 267 279 275 207 202 410 406 185 176 198 189 155 142 172 159 26 35 13 18 22 31 1 4 9 667 684 256 311 316 385 286 282 298 294 290 302 305 308 206 201 193 184 197 188 171 158 180 175 40 49 5 10 2 27 36 14 19 216 219 210 213 229 238 222 226 234 242 112 107 103 90 95 99 82 86 125 116 388 392 141 150 146 154 120 129 133 137 167 163 0
e 3 7 8 11 12 16 17 20 21 24 25 29 30 33 34 37 38 42 43 46 47 50 51 55 56 59 60 63 64 67 68 72 73 76 77 80 81 84 85 88 89 93 94 97 98 101 102 105 106 110 111 114 115 118 119 123 124 127 128 131 132 135 136 139 140 144 145 148 149 152 153 156 157 161 162 165 166 169 170 173 174 178 179 182 183 186 187 191 192 195 196 199 200 204 205 208 209 211 212 214 215 217 218 220 221 224 225 227 228 231 232 233 236 237 240 241 243 244 247 248 251 252 254 255 258 259 262 263 265 266 269 270 273 274 277 278 280 281 284 285 288 289 292 293 296 297 300 301 303 304 306 307 309 310 313 314 315 317 318 321 322 324 325 326 329 330 332 333 336 337 339 340 342 343 346 347 348 351 352 354 355 358 359 361 362 363 366 367 369 370 373 374 376 377 379 380 383 384 386 387 390 391 394 395 397 398 400 401 404 405 408 409 411 412 413 414 415 418 419 420 422 423 425 428 429 430 434 435 440 441 442 446 447 454 455 456 462 463 470 471 472 478 479 486 487 488 494 495 502 503 504 510 511 520 521 522 523 530 531 540 541 542 550 551 560 561 562 563 570 571 580 581 582 590 591 602 603 604 608 614 615 626 627 628 638 639 641 651 652 653 665 666 682 683 685 701 702 6 15 23 28 32 41 45 54 58 66 71 75 83 87 92 96 100 109 113 122 126 130 138 143 147 151 160 164 168 177 181 190 194 203 223 235 239 246 250 257 261 268 272 276 283 287 291 295 299 320 328 335 350 357 365 372 382 389 393 403 407 416 417 421 424 426 427 431 432 433 436 437 438 439 443 444 445 448 449 450 451 452 453 457 458 459 460 461 464 465 466 467 468 469 473 474 475 476 477 480 481 482 483 484 485 489 490 491 492 493 496 497 498 499 500 501 505 506 507 508 509 512 513 514 515 516 517 518 519 524 525 526 527 528 529 532 533 534 535 536 537 538 539 543 544 545 546 547 548 549 552 553 554 555 556 557 558 559 564 565 566 567 568 569 572 573 574 575 576 577 578 579 583 584 585 586 587 588 589 592 593 594 595 596 597 598 599 600 601 605 606 609 610 611 612 613 616 617 618 619 620 621 622 623 624 625 629 630 631 632 633 634 635 636 637 642 643 644 645 646 647 648 649 650 654 655 656 657 658 659 660 661 662 663 664 668 669 670 671 672 673 674 675 676 677 678 679 680 681 686 687 688 689 690 691 692 693 694 695 696 697 698 699 700 703 2015 2016 2017 2018 2019 2020 2021 2022 2023 2024 2025 2026 2027 2028 2029 2030 2031 2032 2033 2034 2035 2036 2037 2038 2039 2040 2041 2042 2043 2044 2045 2046 2047 2048 2049 2050 2051 2052 2053 2054 2055 2056 2057 2058 2059 2060 2061 2062 2063 2064 2065 2066 2067 2068 2069 2070 2071 2072 2073 2074 2075 2076 2077 2078 2079 2080 2081 2082 2083 2084 2085 2086 2087 2088 2089 2090 2091 2092 2093 2094 2095 2096 2097 2098 2099 2100 2101 2102 2103 2104 2105 2106 2107 2108 2109 2110 2111 2112 2113 2114 2115 2116 2117 2118 2119 2120 2121 2122 2123 2124 2125 2126 2127 2128 2129 2130 2131 2132 2133 2134 2135 2136 2137 2138 2139 2140 2141 2142 2143 2144 2145 2146 2147 2148 2149 2150 2151 2152 2153 2154 2155 2156 2157 2158 2159 2160 2161 2162 2163 2164 2165 2166 2167 2168 2169 2170 2171 2172 2173 2174 2175 2176 2177 2178 2179 2180 2181 2182 2183 2184 2185 2186 2187 2188 2189 2190 2191 2192 2193 2194 2195 2196 2197 2198 2199 2200 2201 2202 2203 2204 2205 2206 2207 2208 2209 2210 2211 2212 2213 2214 2215 2216 2217 2218 2219 2220 2221 2222 2223 2224 2225 2226 2227 2228 2229 2230 2231 2232 2233 2234 2235 2236 2237 2238 2239 2240 2241 2242 2243 2244 2245 2246 2247 2248 2249 2250 2251 2252 2253 2254 2255 2256 2257 2258 2259 2260 2261 2262 2263 2264 2265 2266 2267 2268 2269 2270 2271 2272 2273 2274 2275 2276 2277 2278 2279 0
d 230 216 213 0
d 345 338 341 0
d 312 305 308 0
d 640 402 396 0
d 607 378 375 0
2016 -6 0
-2016 6 0
2017 -15 0
-2017 15 0
2018 -23 0
-2018 23 0
2019 -28 0
-2019 28 0
2020 -32 0
-2020 32 0
2021 -41 0
-2021 41 0
2022 -45 0
-2022 45 0
2023 -54 0
-2023 54 0
2024 -58 0
-2024 58 0
2025 -66 0
-2025 66 0
2026 -71 0
-2026 71 0
2027 -75 0
-2027 75 0
2028 -83 0
-2028 83 0
2029 -87 0
-2029 87 0
2030 -92 0
-2030 92 0
2031 -96 0
-2031 96 0
2032 -100 0
-2032 100 0
2033 -109 0
-2033 109 0
2034 -113 0
-2034 113 0
2035 -122 0
-2035 122 0
2036 -126 0
-2036 126 0
2037 -130 0
-2037 130 0
2038 -138 0
-2038 138 0
2039 -143 0
-2039 143 0
2040 -147 0
-2040 147 0
2041 -151 0
-2041 151 0
2042 -160 0
-2042 160 0
2043 -164 0
-2043 164 0
2044 -168 0
-2044 168 0
2045 -177 0
-2045 177 0
2046 -181 0
-2046 181 0
2047 -190 0
-2047 190 0
2048 -194 0
-2048 194 0
2049 -203 0
-2049 203 0
2050 -223 0
-2050 223 0
2051 -235 0
-2051 235 0
2052 -239 0
-2052 239 0
2053 -246 0
-2053 246 0
2054 -250 0
-2054 250 0
2055 -257 0
-2055 257 0
2056 -261 0
-2056 261 0
2057 -268 0
-2057 268 0
2058 -272 0
-2058 272 0
2059 -276 0
-2059 276 0
2060 -283 0
-2060 283 0
2061 -287 0
-2061 287 0
2062 -291 0
-2062 291 0
2063 -295 0
-2063 295 0
2064 -299 0
-2064 299 0
2065 -320 0
-2065 320 0
2066 -328 0
-2066 328 0
2067 -335 0
-2067 335 0
2068 -350 0
-2068 350 0
2069 -357 0
-2069 357 0
2070 -365 0
-2070 365 0
2071 -372 0
-2071 372 0
2072 -382 0
-2072 382 0
2073 -389 0
-2073 389 0
2074 -393 0
-2074 393 0
2075 -403 0
-2075 403 0
2076 -407 0
-2076 407 0
2077 -416 0
-2077 416 0
2078 -417 0
-2078 417 0
2079 -421 0
-2079 421 0
2080 -424 0
-2080 424 0
2081 -426 0
-2081 426 0
2082 -427 0
-2082 427 0
2083 -431 0
-2083 431 0
2084 -432 0
-2084 432 0
2085 -433 0
-2085 433 0
2086 -436 0
-2086 436 0
2087 -437 0
-2087 437 0
2088 -438 0
-2088 438 0
2089 -439 0
-2089 439 0
2090 -443 0
-2090 443 0
2091 -444 0
-2091 444 0
2092 -445 0
-2092 445 0
2093 -448 0
-2093 448 0
2094 -449 0
-2094 449 0
2095 -450 0
-2095 450 0
2096 -451 0
-2096 451 0
2097 -452 0
-2097 452 0
2098 -453 0
-2098 453 0
2099 -457 0
-2099 457 0
2100 -458 0
-2100 458 0
2101 -459 0
-2101 459 0
2102 -460 0
-2102 460 0
2103 -461 0
-2103 461 0
2104 -464 0
-2104 464 0
2105 -465 0
-2105 465 0
2106 -466 0
-2106 466 0
2107 -467 0
-2107 467 0
2108 -468 0
-2108 468 0
2109 -469 0
-2109 469 0
2110 -473 0
-2110 473 0
2111 -474 0
-2111 474 0
2112 -475 0
-2112 475 0
2113 -476 0
-2113 476 0
2114 -477 0
-2114 477 0
2115 -480 0
-2115 480 0
2116 -481 0
-2116 481 0
2117 -482 0
-2117 482 0
2118 -483 0
-2118 483 0
2119 -484 0
-2119 484 0
2120 -485 0
-2120 485 0
2121 -489 0
-2121 489 0
2122 -490 0
-2122 490 0
2123 -491 0
-2123 491 0
2124 -492 0
-2124 492 0
2125 -493 0
-2125 493 0
2126 -496 0
-2126 496 0
2127 -497 0
-2127 497 0
2128 -498 0
-2128 498 0
2129 -499 0
-2129 499 0
2130 -500 0
-2130 500 0
2131 -501 0
-2131 501 0
2132 -505 0
-2132 505 0
2133 -506 0
-2133 506 0
2134 -507 0
-2134 507 0
2135 -508 0
-2135 508 0
2136 -509 0
-2136 509 0
2137 -512 0
-2137 512 0
2138 -513 0
-2138 513 0
2139 -514 0
-2139 514 0
2140 -515 0
-2140 515 0
2141 -516 0
-2141 516 0
2142 -517 0
-2142 517 0
2143 -518 0
-2143 518 0
2144 -519 0
-2144 519 0
2145 -524 0
-2145 524 0
2146 -525 0
-2146 525 0
2147 -526 0
-2147 526 0
2148 -527 0
-2148 527 0
2149 -528 0
-2149 528 0
2150 -529 0
-2150 529 0
2151 -532 0
-2151 532 0
2152 -533 0
-2152 533 0
2153 -534 0
-2153 534 0
2154 -535 0
-2154 535 0
2155 -536 0
-2155 536 0
2156 -537 0
-2156 537 0
2157 -538 0
-2157 538 0
2158 -539 0
-2158 539 0
2159 -543 0
-2159 543 0
2160 -544 0
-2160 544 0
2161 -545 0
-2161 545 0
2162 -546 0
-2162 546 0
2163 -547 0
-2163 547 0
2164 -548 0
-2164 548 0
2165 -549 0
-2165 549 0
2166 -552 0
-2166 552 0
2167 -553 0
-2167 553 0
2168 -554 0
-2168 554 0
2169 -555 0
-2169 555 0
2170 -556 0
-2170 556 0
2171 -557 0
-2171 557 0
2172 -558 0
-2172 558 0
2173 -559 0
-2173 559 0
2174 -564 0
-2174 564 0
2175 -565 0
-2175 565 0
2176 -566 0
-2176 566 0
2177 -567 0
-2177 567 0
2178 -568 0
-2178 568 0
2179 -569 0
-2179 569 0
2180 -572 0
-2180 572 0
2181 -573 0
-2181 573 0
2182 -574 0
-2182 574 0
2183 -575 0
-2183 575 0
2184 -576 0
-2184 576 0
2185 -577 0
-2185 577 0
2186 -578 0
-2186 578 0
2187 -579 0
-2187 579 0
2188 -583 0
-2188 583 0
2189 -584 0
-2189 584 0
2190 -585 0
-2190 585 0
2191 -586 0
-2191 586 0
2192 -587 0
-2192 587 0
2193 -588 0
-2193 588 0
2194 -589 0
-2194 589 0
-2195 -592 0
2195 592 0
2196 -593 0
-2196 593 0
2197 -594 0
-2197 594 0
2198 -595 0
-2198 595 0
2199 -596 0
-2199 596 0
2200 -597 0
-2200 597 0
2201 -598 0
-2201 598 0
2202 -599 0
-2202 599 0
2203 -600 0
-2203 600 0
2204 -601 0
-2204 601 0
2205 -605 0
-2205 605 0
2206 -606 0
-2206 606 0
2207 -609 0
-2207 609 0
2208 -610 0
-2208 610 0
2209 -611 0
-2209 611 0
2210 -612 0
-2210 612 0
2211 -613 0
-2211 613 0
2212 -616 0
-2212 616 0
2213 -617 0
-2213 617 0
2214 -618 0
-2214 618 0
2215 -619 0
-2215 619 0
2216 -620 0
-2216 620 0
2217 -621 0
-2217 621 0
2218 -622 0
-2218 622 0
2219 -623 0
-2219 623 0
2220 -624 0
-2220 624 0
2221 -625 0
-2221 625 0
2222 -629 0
-2222 629 0
2223 -630 0
-2223 630 0
2224 -631 0
-2224 631 0
2225 -632 0
-2225 632 0
2226 -633 0
-2226 633 0
2227 -634 0
-2227 634 0
2228 -635 0
-2228 635 0
2229 -636 0
-2229 636 0
2230 -637 0
-2230 637 0
2231 -642 0
-2231 642 0
2232 -643 0
-2232 643 0
2233 -644 0
-2233 644 0
2234 -645 0
-2234 645 0
2235 -646 0
-2235 646 0
2236 -647 0
-2236 647 0
2237 -648 0
-2237 648 0
2238 -649 0
-2238 649 0
2239 -650 0
-2239 650 0
2240 -654 0
-2240 654 0
2241 -655 0
-2241 655 0
2242 -656 0
-2242 656 0
2243 -657 0
-2243 657 0
2244 -658 0
-2244 658 0
2245 -659 0
-2245 659 0
2246 -660 0
-2246 660 0
2247 -661 0
-2247 661 0
2248 -662 0
-2248 662 0
2249 -663 0
-2249 663 0
2250 -664 0
-2250 664 0
2251 -668 0
-2251 668 0
2252 -669 0
-2252 669 0
2253 -670 0
-2253 670 0
2254 -671 0
-2254 671 0
2255 -672 0
-2255 672 0
2256 -673 0
-2256 673 0
2257 -674 0
-2257 674 0
2258 -675 0
-2258 675 0
2259 -676 0
-2259 676 0
2260 -677 0
-2260 677 0
2261 -678 0
-2261 678 0
2262 -679 0
-2262 679 0
2263 -680 0
-2263 680 0
2264 -681 0
-2264 681 0
2265 -686 0
-2265 686 0
2266 -687 0
-2266 687 0
2267 -688 0
-2267 688 0
2268 -689 0
-2268 689 0
2269 -690 0
-2269 690 0
2270 -691 0
-2270 691 0
2271 -692 0
-2271 692 0
2272 -693 0
-2272 693 0
2273 -694 0
-2273 694 0
2274 -695 0
-2274 695 0
2275 -696 0
-2275 696 0
2276 -697 0
-2276 697 0
2277 -698 0
-2277 698 0
2278 -699 0
-2278 699 0
2279 -700 0
-2279 700 0
2015 -703 0
-2015 703 0
703 0
-703 412 702 0
-412 409 -411 0
-409 405 -408 0
-405 401 -404 0
-401 398 -400 0
-398 395 -397 0
-395 391 -394 0
-391 387 -390 0
-387 384 -386 0
-384 380 -383 0
-380 377 -379 0
-377 374 -376 0
-374 370 -373 0
-370 367 -369 0
-367 363 -366 0
-363 359 -362 0
-359 355 -358 0
-355 352 -354 0
-352 348 -351 0
-348 343 -347 0
-343 340 -342 0
-340 337 -339 0
-337 333 -336 0
-333 330 -332 0
-330 326 -329 0
-326 322 -325 0
-322 318 -321 0
-318 315 -317 0
-315 310 -314 0
-310 307 -309 0
-307 304 -306 0
-304 301 -303 0
-301 297 -300 0
-297 293 -296 0
-293 289 -292 0
-289 285 -288 0
-285 281 -284 0
-281 278 -280 0
-278 274 -277 0
-274 270 -273 0
-270 266 -269 0
-266 263 -265 0
-263 259 -262 0
-259 255 -258 0
-255 252 -254 0
-252 248 -251 0
-248 244 -247 0
-244 241 -243 0
-241 237 -240 0
-237 233 -236 0
-233 228 -232 0
-228 225 -227 0
-225 221 -224 0
-221 218 -220 0
-218 215 -217 0
-215 212 -214 0
-212 209 -211 0
-209 205 -208 0
-205 200 -204 0
-200 196 -199 0
-196 192 -195 0
-192 187 -191 0
-187 183 -186 0
-183 179 -182 0
-179 174 -178 0
-174 170 -173 0
-170 166 -169 0
-166 162 -165 0
-162 157 -161 0
-157 153 -156 0
-153 149 -152 0
-149 145 -148 0
-145 140 -144 0
-140 136 -139 0
-136 132 -135 0
-132 128 -131 0
-128 124 -127 0
-124 119 -123 0
-119 115 -118 0
-115 111 -114 0
-111 106 -110 0
-106 102 -105 0
-102 98 -101 0
-98 94 -97 0
-94 89 -93 0
-89 85 -88 0
-85 81 -84 0
-81 77 -80 0
-77 73 -76 0
-73 68 -72 0
-68 64 -67 0
-64 60 -63 0
-60 56 -59 0
-56 51 -55 0
-51 47 -50 0
-47 43 -46 0
-43 38 -42 0
-38 34 -37 0
-34 30 -33 0
-30 25 -29 0
-25 21 -24 0
-21 17 -20 0
-17 12 -16 0
-12 8 -11 0
-8 -3 -7 0
1 -2 3 0
-1 2 3 0
4 6 7 0
-4 -6 7 0
-1 5 6 0
-6 1 0
-6 -5 0
9 -10 11 0
-9 10 11 0
13 15 16 0
-13 -15 16 0
-9 14 15 0
-15 9 0
-15 -14 0
18 -19 20 0
-18 19 20 0
22 23 24 0
-22 -23 24 0
-4 -13 23 0
-23 4 0
-23 13 0
26 28 29 0
-26 -28 29 0
-18 27 28 0
-28 18 0
-28 -27 0
31 32 33 0
-31 -32 33 0
-13 -26 32 0
-32 13 0
-32 26 0
35 -36 37 0
-35 36 37 0
39 41 42 0
-39 -41 42 0
-35 40 41 0
-41 35 0
-41 -40 0
44 45 46 0
-44 -45 46 0
-26 -39 45 0
-45 26 0
-45 39 0
48 -49 50 0
-48 49 50 0
52 54 55 0
-52 -54 55 0
-48 53 54 0
-54 48 0
-54 -53 0
57 58 59 0
-57 -58 59 0
-39 -52 58 0
-58 39 0
-58 52 0
61 -62 63 0
-61 62 63 0
65 66 67 0
-65 -66 67 0
-22 -44 66 0
-66 22 0
-66 44 0
69 71 72 0
-69 -71 72 0
-61 70 71 0
-71 61 0
-71 -70 0
74 75 76 0
-74 -75 76 0
-31 -57 75 0
-75 31 0
-75 57 0
78 -79 80 0
-78 79 80 0
82 83 84 0
-82 -83 84 0
-52 -69 83 0
-83 52 0
-83 69 0
86 87 88 0
-86 -87 88 0
-44 -82 87 0
-87 44 0
-87 82 0
90 92 93 0
-90 -92 93 0
-78 91 92 0
-92 78 0
-92 -91 0
95 96 97 0
-95 -96 97 0
-69 -90 96 0
-96 69 0
-96 90 0
99 100 101 0
-99 -100 101 0
-57 -95 100 0
-100 57 0
-100 95 0
103 -104 105 0
-103 104 105 0
107 109 110 0
-107 -109 110 0
-103 108 109 0
-109 103 0
-109 -108 0
112 113 114 0
-112 -113 114 0
-90 -107 113 0
-113 90 0
-113 107 0
116 -117 118 0
-116 117 118 0
120 122 123 0
-120 -122 123 0
-116 121 122 0
-122 116 0
-122 -121 0
125 126 127 0
-125 -126 127 0
-107 -120 126 0
-126 107 0
-126 120 0
129 130 131 0
-129 -130 131 0
-82 -112 130 0
-130 82 0
-130 112 0
133 -134 135 0
-133 134 135 0
137 138 139 0
-137 -138 139 0
-95 -125 138 0
-138 95 0
-138 125 0
141 143 144 0
-141 -143 144 0
-133 142 143 0
-143 133 0
-143 -142 0
146 147 148 0
-146 -147 148 0
-120 -141 147 0
-147 120 0
-147 141 0
150 151 152 0
-150 -151 152 0
-112 -146 151 0
-151 112 0
-151 146 0
154 -155 156 0
-154 155 156 0
158 160 161 0
-158 -160 161 0
-154 159 160 0
-160 154 0
-160 -159 0
163 164 165 0
-163 -164 165 0
-141 -158 164 0
-164 141 0
-164 158 0
167 168 169 0
-167 -168 169 0
-125 -163 168 0
-168 125 0
-168 163 0
171 -172 173 0
-171 172 173 0
175 177 178 0
-175 -177 178 0
-171 176 177 0
-177 171 0
-177 -176 0
180 181 182 0
-180 -181 182 0
-158 -175 181 0
-181 158 0
-181 175 0
184 -185 186 0
-184 185 186 0
188 190 191 0
-188 -190 191 0
-184 189 190 0
-190 184 0
-190 -189 0
193 194 195 0
-193 -194 195 0
-175 -188 194 0
-194 175 0
-194 188 0
197 -198 199 0
-197 198 199 0
201 203 204 0
-201 -203 204 0
-197 202 203 0
-203 197 0
-203 -202 0
206 -207 208 0
-206 207 208 0
210 -2 211 0
-210 2 211 0
213 210 214 0
-213 -210 214 0
216 -5 217 0
-216 5 217 0
219 -10 220 0
-219 10 220 0
222 223 224 0
-222 -223 224 0
-219 14 223 0
-223 219 0
-223 -14 0
226 -19 227 0
-226 19 227 0
229 231 232 0
-229 -231 232 0
-230 -222 231 0
-231 230 0
-231 222 0
234 235 236 0
-234 -235 236 0
-226 27 235 0
-235 226 0
-235 -27 0
238 239 240 0
-238 -239 240 0
-222 -234 239 0
-239 222 0
-239 234 0
242 -36 243 0
-242 36 243 0
245 246 247 0
-245 -246 247 0
-242 40 246 0
-246 242 0
-246 -40 0
249 250 251 0
-249 -250 251 0
-234 -245 250 0
-250 234 0
-250 245 0
253 -49 254 0
-253 49 254 0
256 257 258 0
-256 -257 258 0
-253 53 257 0
-257 253 0
-257 -53 0
260 261 262 0
-260 -261 262 0
-245 -256 261 0
-261 245 0
-261 256 0
264 -62 265 0
-264 62 265 0
267 268 269 0
-267 -268 269 0
-229 -249 268 0
-268 229 0
-268 249 0
271 272 273 0
-271 -272 273 0
-264 70 272 0
-272 264 0
-272 -70 0
275 276 277 0
-275 -276 277 0
-238 -260 276 0
-276 238 0
-276 260 0
279 -79 280 0
-279 79 280 0
282 283 284 0
-282 -283 284 0
-256 -271 283 0
-283 256 0
-283 271 0
286 287 288 0
-286 -287 288 0
-249 -282 287 0
-287 249 0
-287 282 0
290 291 292 0
-290 -291 292 0
-279 91 291 0
-291 279 0
-291 -91 0
294 295 296 0
-294 -295 296 0
-271 -290 295 0
-295 271 0
-295 290 0
298 299 300 0
-298 -299 300 0
-260 -294 299 0
-299 260 0
-299 294 0
302 -104 303 0
-302 104 303 0
305 302 306 0
-305 -302 306 0
308 -108 309 0
-308 108 309 0
311 313 314 0
-311 -313 314 0
-290 -312 313 0
-313 290 0
-313 312 0
316 -117 317 0
-316 117 317 0
319 320 321 0
-319 -320 321 0
-316 121 320 0
-320 316 0
-320 -121 0
323 324 325 0
-323 -324 325 0
-312 -319 324 0
-324 312 0
-324 319 0
327 328 329 0
-327 -328 329 0
-282 -311 328 0
-328 282 0
-328 311 0
331 -134 332 0
-331 134 332 0
334 335 336 0
-334 -335 336 0
-294 -323 335 0
-335 294 0
-335 323 0
338 331 339 0
-338 -331 339 0
341 -142 342 0
-341 142 342 0
344 346 347 0
-344 -346 347 0
-319 -345 346 0
-346 319 0
-346 345 0
349 350 351 0
-349 -350 351 0
-311 -344 350 0
-350 311 0
-350 344 0
353 -155 354 0
-353 155 354 0
356 357 358 0
-356 -357 358 0
-353 159 357 0
-357 353 0
-357 -159 0
360 361 362 0
-360 -361 362 0
-345 -356 361 0
-361 345 0
-361 356 0
364 365 366 0
-364 -365 366 0
-323 -360 365 0
-365 323 0
-365 360 0
368 -172 369 0
-368 172 369 0
371 372 373 0
-371 -372 373 0
-368 176 372 0
-372 368 0
-372 -176 0
375 275 376 0
-375 -275 376 0
378 334 379 0
-378 -334 379 0
381 382 383 0
-381 -382 383 0
-356 -371 382 0
-382 356 0
-382 371 0
385 -185 386 0
-385 185 386 0
388 389 390 0
-388 -389 390 0
-385 189 389 0
-389 385 0
-389 -189 0
392 393 394 0
-392 -393 394 0
-371 -388 393 0
-393 371 0
-393 388 0
396 388 397 0
-396 -388 397 0
399 -198 400 0
-399 198 400 0
402 403 404 0
-402 -403 404 0
-399 -202 403 0
-403 399 0
-403 202 0
406 407 408 0
-406 -407 408 0
-399 202 407 0
-407 399 0
-407 -202 0
410 -207 411 0
-410 207 411 0
-702 683 0
-702 701 0
-683 666 0
-683 682 0
-666 652 0
-666 665 0
-652 639 0
-652 651 0
-639 627 0
-639 638 0
-627 615 0
-627 626 0
-615 603 0
-615 614 0
-603 591 0
-603 602 0
-591 581 0
-591 590 0
-581 571 0
-581 580 0
-571 561 0
-571 570 0
-561 551 0
-561 560 0
-551 541 0
-551 550 0
-541 531 0
-541 540 0
-531 521 0
-531 530 0
-521 511 0
-521 520 0
-511 503 0
-511 510 0
-503 495 0
-503 502 0
-495 487 0
-495 494 0
-487 479 0
-487 486 0
-479 471 0
-479 478 0
-471 463 0
-471 470 0
-463 455 0
-463 462 0
-455 447 0
-455 454 0
-447 441 0
-447 446 0
-441 435 0
-441 440 0
-435 429 0
-435 434 0
-429 423 0
-429 428 0
-423 419 0
-423 422 0
-419 415 0
-419 418 0
-415 413 0
-415 414 0
-413 -2 2 0
-413 2 -2 0
-414 -2 2 0
-414 2 -2 0
-418 -416 417 0
-418 416 -417 0
-416 210 0
-416 5 0
-417 1 0
-417 5 0
-210 -5 416 0
-1 -5 417 0
-422 -420 421 0
-422 420 -421 0
-420 10 0
-420 230 0
-421 10 0
-421 4 0
-10 -230 420 0
-10 -4 421 0
-428 -425 427 0
-428 425 -427 0
-425 230 0
-425 424 0
-424 219 0
-424 14 0
-427 4 0
-427 426 0
-426 9 0
-426 14 0
-230 -424 425 0
-219 -14 424 0
-4 -426 427 0
-9 -14 426 0
-434 -431 433 0
-434 431 -433 0
-431 222 0
-431 430 0
-430 19 0
-430 230 0
-433 13 0
-433 432 0
-432 19 0
-432 4 0
-222 -430 431 0
-19 -230 430 0
-13 -432 433 0
-19 -4 432 0
-440 -437 439 0
-440 437 -439 0
-437 436 0
-437 229 0
-436 226 0
-436 27 0
-439 438 0
-439 22 0
-438 18 0
-438 27 0
-436 -229 437 0
-226 -27 436 0
-438 -22 439 0
-18 -27 438 0
-446 -443 445 0
-446 443 -445 0
-443 442 0
-443 238 0
-442 36 0
-442 230 0
-445 444 0
-445 31 0
-444 36 0
-444 4 0
-442 -238 443 0
-36 -230 442 0
-444 -31 445 0
-36 -4 444 0
-454 -450 453 0
-454 450 -453 0
-450 229 0
-450 449 0
-449 234 0
-449 448 0
-448 242 0
-448 40 0
-453 22 0
-453 452 0
-452 26 0
-452 451 0
-451 35 0
-451 40 0
-229 -449 450 0
-234 -448 449 0
-242 -40 448 0
-22 -452 453 0
-26 -451 452 0
-35 -40 451 0
-462 -458 461 0
-462 458 -461 0
-458 238 0
-458 457 0
-457 245 0
-457 456 0
-456 49 0
-456 230 0
-461 31 0
-461 460 0
-460 39 0
-460 459 0
-459 49 0
-459 4 0
-238 -457 458 0
-245 -456 457 0
-49 -230 456 0
-31 -460 461 0
-39 -459 460 0
-49 -4 459 0
-470 -466 469 0
-470 466 -469 0
-466 249 0
-466 465 0
-465 464 0
-465 229 0
-464 253 0
-464 53 0
-469 44 0
-469 468 0
-468 467 0
-468 22 0
-467 48 0
-467 53 0
-249 -465 466 0
-464 -229 465 0
-253 -53 464 0
-44 -468 469 0
-467 -22 468 0
-48 -53 467 0
-478 -474 477 0
-478 474 -477 0
-474 260 0
-474 473 0
-473 472 0
-473 238 0
-472 62 0
-472 230 0
-477 57 0
-477 476 0
-476 475 0
-476 31 0
-475 62 0
-475 4 0
-260 -473 474 0
-472 -238 473 0
-62 -230 472 0
-57 -476 477 0
-475 -31 476 0
-62 -4 475 0
-486 -482 485 0
-486 482 -485 0
-482 481 0
-482 267 0
-481 256 0
-481 480 0
-480 264 0
-480 70 0
-485 484 0
-485 65 0
-484 52 0
-484 483 0
-483 61 0
-483 70 0
-481 -267 482 0
-256 -480 481 0
-264 -70 480 0
-484 -65 485 0
-52 -483 484 0
-61 -70 483 0
-494 -490 493 0
-494 490 -493 0
-490 489 0
-490 275 0
-489 271 0
-489 488 0
-488 79 0
-488 230 0
-493 492 0
-493 74 0
-492 69 0
-492 491 0
-491 79 0
-491 4 0
-489 -275 490 0
-271 -488 489 0
-79 -230 488 0
-492 -74 493 0
-69 -491 492 0
-79 -4 491 0
-502 -498 501 0
-502 498 -501 0
-498 497 0
-498 286 0
-497 496 0
-497 229 0
-496 279 0
-496 91 0
-501 500 0
-501 86 0
-500 499 0
-500 22 0
-499 78 0
-499 91 0
-497 -286 498 0
-496 -229 497 0
-279 -91 496 0
-500 -86 501 0
-499 -22 500 0
-78 -91 499 0
-510 -506 509 0
-510 506 -509 0
-506 505 0
-506 298 0
-505 504 0
-505 238 0
-504 104 0
-504 230 0
-509 508 0
-509 99 0
-508 507 0
-508 31 0
-507 104 0
-507 4 0
-505 -298 506 0
-504 -238 505 0
-104 -230 504 0
-508 -99 509 0
-507 -31 508 0
-104 -4 507 0
-520 -515 519 0
-520 515 -519 0
-515 267 0
-515 514 0
-514 282 0
-514 513 0
-513 290 0
-513 512 0
-512 302 0
-512 108 0
-519 65 0
-519 518 0
-518 82 0
-518 517 0
-517 90 0
-517 516 0
-516 103 0
-516 108 0
-267 -514 515 0
-282 -513 514 0
-290 -512 513 0
-302 -108 512 0
-65 -518 519 0
-82 -517 518 0
-90 -516 517 0
-103 -108 516 0
-530 -525 529 0
-530 525 -529 0
-525 275 0
-525 524 0
-524 294 0
-524 523 0
-523 312 0
-523 522 0
-522 117 0
-522 230 0
-529 74 0
-529 528 0
-528 95 0
-528 527 0
-527 107 0
-527 526 0
-526 117 0
-526 4 0
-275 -524 525 0
-294 -523 524 0
-312 -522 523 0
-117 -230 522 0
-74 -528 529 0
-95 -527 528 0
-107 -526 527 0
-117 -4 526 0
-540 -535 539 0
-540 535 -539 0
-535 286 0
-535 534 0
-534 311 0
-534 533 0
-533 532 0
-533 229 0
-532 316 0
-532 121 0
-539 86 0
-539 538 0
-538 112 0
-538 537 0
-537 536 0
-537 22 0
-536 116 0
-536 121 0
-286 -534 535 0
-311 -533 534 0
-532 -229 533 0
-316 -121 532 0
-86 -538 539 0
-112 -537 538 0
-536 -22 537 0
-116 -121 536 0
-550 -545 549 0
-550 545 -549 0
-545 298 0
-545 544 0
-544 323 0
-544 543 0
-543 542 0
-543 238 0
-542 134 0
-542 230 0
-549 99 0
-549 548 0
-548 125 0
-548 547 0
-547 546 0
-547 31 0
-546 134 0
-546 4 0
-298 -544 545 0
-323 -543 544 0
-542 -238 543 0
-134 -230 542 0
-99 -548 549 0
-125 -547 548 0
-546 -31 547 0
-134 -4 546 0
-560 -555 559 0
-560 555 -559 0
-555 327 0
-555 554 0
-554 553 0
-554 267 0
-553 319 0
-553 552 0
-552 331 0
-552 142 0
-559 129 0
-559 558 0
-558 557 0
-558 65 0
-557 120 0
-557 556 0
-556 133 0
-556 142 0
-327 -554 555 0
-553 -267 554 0
-319 -552 553 0
-331 -142 552 0
-129 -558 559 0
-557 -65 558 0
-120 -556 557 0
-133 -142 556 0
-570 -565 569 0
-570 565 -569 0
-565 334 0
-565 564 0
-564 563 0
-564 275 0
-563 345 0
-563 562 0
-562 155 0
-562 230 0
-569 137 0
-569 568 0
-568 567 0
-568 74 0
-567 141 0
-567 566 0
-566 155 0
-566 4 0
-334 -564 565 0
-563 -275 564 0
-345 -562 563 0
-155 -230 562 0
-137 -568 569 0
-567 -74 568 0
-141 -566 567 0
-155 -4 566 0
-580 -575 579 0
-580 575 -579 0
-575 349 0
-575 574 0
-574 573 0
-574 286 0
-573 572 0
-573 229 0
-572 353 0
-572 159 0
-579 150 0
-579 578 0
-578 577 0
-578 86 0
-577 576 0
-577 22 0
-576 154 0
-576 159 0
-349 -574 575 0
-573 -286 574 0
-572 -229 573 0
-353 -159 572 0
-150 -578 579 0
-577 -86 578 0
-576 -22 577 0
-154 -159 576 0
-590 -585 589 0
-590 585 -589 0
-585 364 0
-585 584 0
-584 583 0
-584 298 0
-583 582 0
-583 238 0
-582 172 0
-582 230 0
-589 167 0
-589 588 0
-588 587 0
-588 99 0
-587 586 0
-587 31 0
-586 172 0
-586 4 0
-364 -584 585 0
-583 -298 584 0
-582 -238 583 0
-172 -230 582 0
-167 -588 589 0
-587 -99 588 0
-586 -31 587 0
-172 -4 586 0
-602 -596 601 0
-602 596 -601 0
-596 594 0
-596 595 0
-594 344 0
-594 593 0
-593 356 0
-593 592 0
-592 368 176 0
-595 267 0
-595 327 0
-601 599 0
-601 600 0
-599 146 0
-599 598 0
-598 158 0
-598 597 0
-597 171 0
-597 176 0
-600 65 0
-600 129 0
-594 -595 596 0
-344 -593 594 0
-356 -592 593 0
-368 176 592 0
368 -176 592 0
-368 -176 592 0
-267 -327 595 0
-599 -600 601 0
-146 -598 599 0
-158 -597 598 0
-171 -176 597 0
-65 -129 600 0
-614 -608 613 0
-614 608 -613 0
-608 606 0
-608 607 0
-606 360 0
-606 605 0
-605 371 0
-605 604 0
-604 185 0
-604 230 0
-613 611 0
-613 612 0
-611 163 0
-611 610 0
-610 175 0
-610 609 0
-609 185 0
-609 4 0
-612 74 0
-612 137 0
-606 -607 608 0
-360 -605 606 0
-371 -604 605 0
-185 -230 604 0
-611 -612 613 0
-163 -610 611 0
-175 -609 610 0
-185 -4 609 0
-74 -137 612 0
-626 -620 625 0
-626 620 -625 0
-620 618 0
-620 619 0
-618 381 0
-618 617 0
-617 616 0
-617 229 0
-616 385 0
-616 189 0
-619 286 0
-619 349 0
-625 623 0
-625 624 0
-623 180 0
-623 622 0
-622 621 0
-622 22 0
-621 184 0
-621 189 0
-624 86 0
-624 150 0
-618 -619 620 0
-381 -617 618 0
-616 -229 617 0
-385 -189 616 0
-286 -349 619 0
-623 -624 625 0
-180 -622 623 0
-621 -22 622 0
-184 -189 621 0
-86 -150 624 0
-638 -632 637 0
-638 632 -637 0
-632 630 0
-632 631 0
-630 392 0
-630 629 0
-629 628 0
-629 238 0
-628 198 0
-628 230 0
-631 298 0
-631 364 0
-637 635 0
-637 636 0
-635 193 0
-635 634 0
-634 633 0
-634 31 0
-633 198 0
-633 4 0
-636 99 0
-636 167 0
-630 -631 632 0
-392 -629 630 0
-628 -238 629 0
-198 -230 628 0
-298 -364 631 0
-635 -636 637 0
-193 -634 635 0
-633 -31 634 0
-198 -4 633 0
-99 -167 636 0
-651 -644 650 0
-651 644 -650 0
-644 641 0
-644 643 0
-641 640 0
-641 267 0
-643 327 0
-643 642 0
-642 344 0
-642 381 0
-650 647 0
-650 649 0
-647 646 0
-647 65 0
-646 188 0
-646 645 0
-645 197 0
-645 202 0
-649 129 0
-649 648 0
-648 146 0
-648 180 0
-641 -643 644 0
-640 -267 641 0
-327 -642 643 0
-344 -381 642 0
-647 -649 650 0
-646 -65 647 0
-188 -645 646 0
-197 -202 645 0
-129 -648 649 0
-146 -180 648 0
-665 -658 664 0
-665 658 -664 0
-658 655 0
-658 657 0
-655 654 0
-655 275 0
-654 406 0
-654 653 0
-653 207 0
-653 230 0
-657 334 0
-657 656 0
-656 360 0
-656 392 0
-664 661 0
-664 663 0
-661 660 0
-661 74 0
-660 201 0
-660 659 0
-659 207 0
-659 4 0
-663 137 0
-663 662 0
-662 163 0
-662 193 0
-655 -657 658 0
-654 -275 655 0
-406 -653 654 0
-207 -230 653 0
-334 -656 657 0
-360 -392 656 0
-661 -663 664 0
-660 -74 661 0
-201 -659 660 0
-207 -4 659 0
-137 -662 663 0
-163 -193 662 0
-682 -674 681 0
-682 674 -681 0
-674 670 0
-674 673 0
-670 669 0
-670 286 0
-669 668 0
-669 229 0
-668 410 0
-668 667 0
-673 349 0
-673 672 0
-672 381 0
-672 671 0
-671 388 0
-671 406 0
-681 677 0
-681 680 0
-677 676 0
-677 86 0
-676 675 0
-676 22 0
-675 206 0
-675 667 0
-680 150 0
-680 679 0
-679 180 0
-679 678 0
-678 188 0
-678 201 0
-670 -673 674 0
-669 -286 670 0
-668 -229 669 0
-410 -667 668 0
-349 -672 673 0
-381 -671 672 0
-388 -406 671 0
-677 -680 681 0
-676 -86 677 0
-675 -22 676 0
-206 -667 675 0
-150 -679 680 0
-180 -678 679 0
-188 -201 678 0
-701 -692 700 0
-701 692 -700 0
-692 687 0
-692 691 0
-687 686 0
-687 298 0
-686 685 0
-686 238 0
-685 684 0
-685 230 0
-691 364 0
-691 690 0
-690 392 0
-690 689 0
-689 406 0
-689 688 0
-688 410 0
-688 -667 0
-700 695 0
-700 699 0
-695 694 0
-695 99 0
-694 693 0
-694 31 0
-693 684 0
-693 4 0
-699 167 0
-699 698 0
-698 193 0
-698 697 0
-697 201 0
-697 696 0
-696 206 0
-696 -667 0
-687 -691 692 0
-686 -298 687 0
-685 -238 686 0
-684 -230 685 0
-364 -690 691 0
-392 -689 690 0
-406 -688 689 0
-410 667 688 0
-695 -699 700 0
-694 -99 695 0
-693 -31 694 0
-684 -4 693 0
-167 -698 699 0
-193 -697 698 0
-201 -696 697 0
-206 667 696 0
2015 0
1 -2016 0
-5 -2016 0
-1 5 2016 0
9 -2017 0
-14 -2017 0
-9 14 2017 0
13 -2018 0
4 -2018 0
-13 -4 2018 0
18 -2019 0
-27 -2019 0
-18 27 2019 0
26 -2020 0
13 -2020 0
-26 -13 2020 0
35 -2021 0
-40 -2021 0
-35 40 2021 0
39 -2022 0
26 -2022 0
-39 -26 2022 0
48 -2023 0
-53 -2023 0
-48 53 2023 0
52 -2024 0
39 -2024 0
-52 -39 2024 0
44 -2025 0
22 -2025 0
-44 -22 2025 0
61 -2026 0
-70 -2026 0
-61 70 2026 0
57 -2027 0
31 -2027 0
-57 -31 2027 0
69 -2028 0
52 -2028 0
-69 -52 2028 0
44 -2029 0
82 -2029 0
-44 -82 2029 0
78 -2030 0
-91 -2030 0
-78 91 2030 0
69 -2031 0
90 -2031 0
-69 -90 2031 0
57 -2032 0
95 -2032 0
-57 -95 2032 0
-108 -2033 0
103 -2033 0
108 -103 2033 0
107 -2034 0
90 -2034 0
-107 -90 2034 0
-121 -2035 0
116 -2035 0
121 -116 2035 0
107 -2036 0
120 -2036 0
-107 -120 2036 0
112 -2037 0
82 -2037 0
-112 -82 2037 0
95 -2038 0
125 -2038 0
-95 -125 2038 0
-142 -2039 0
133 -2039 0
142 -133 2039 0
141 -2040 0
120 -2040 0
-141 -120 2040 0
112 -2041 0
146 -2041 0
-112 -146 2041 0
-159 -2042 0
154 -2042 0
159 -154 2042 0
158 -2043 0
141 -2043 0
-158 -141 2043 0
125 -2044 0
163 -2044 0
-125 -163 2044 0
-176 -2045 0
171 -2045 0
176 -171 2045 0
158 -2046 0
175 -2046 0
-158 -175 2046 0
-189 -2047 0
184 -2047 0
189 -184 2047 0
188 -2048 0
175 -2048 0
-188 -175 2048 0
-202 -2049 0
197 -2049 0
202 -197 2049 0
-14 -2050 0
219 -2050 0
14 -219 2050 0
-27 -2051 0
226 -2051 0
27 -226 2051 0
222 -2052 0
234 -2052 0
-222 -234 2052 0
-40 -2053 0
242 -2053 0
40 -242 2053 0
245 -2054 0
234 -2054 0
-245 -234 2054 0
253 -2055 0
-53 -2055 0
-253 53 2055 0
245 -2056 0
256 -2056 0
-245 -256 2056 0
249 -2057 0
229 -2057 0
-249 -229 2057 0
264 -2058 0
-70 -2058 0
-264 70 2058 0
260 -2059 0
238 -2059 0
-260 -238 2059 0
271 -2060 0
256 -2060 0
-271 -256 2060 0
249 -2061 0
282 -2061 0
-249 -282 2061 0
-91 -2062 0
279 -2062 0
91 -279 2062 0
271 -2063 0
290 -2063 0
-271 -290 2063 0
260 -2064 0
294 -2064 0
-260 -294 2064 0
-121 -2065 0
316 -2065 0
121 -316 2065 0
311 -2066 0
282 -2066 0
-311 -282 2066 0
323 -2067 0
294 -2067 0
-323 -294 2067 0
344 -2068 0
311 -2068 0
-344 -311 2068 0
353 -2069 0
-159 -2069 0
-353 159 2069 0
323 -2070 0
360 -2070 0
-323 -360 2070 0
368 -2071 0
-176 -2071 0
-368 176 2071 0
371 -2072 0
356 -2072 0
-371 -356 2072 0
-189 -2073 0
385 -2073 0
189 -385 2073 0
371 -2074 0
388 -2074 0
-371 -388 2074 0
399 -2075 0
202 -2075 0
-399 -202 2075 0
399 -2076 0
-202 -2076 0
-399 202 2076 0
5 -2077 0
210 -2077 0
-5 -210 2077 0
1 -2078 0
5 -2078 0
-1 -5 2078 0
4 -2079 0
10 -2079 0
-4 -10 2079 0
14 -2080 0
219 -2080 0
-14 -219 2080 0
9 -2081 0
14 -2081 0
-9 -14 2081 0
4 -2082 0
426 -2082 0
-4 -426 2082 0
222 -2083 0
430 -2083 0
-222 -430 2083 0
4 -2084 0
19 -2084 0
-4 -19 2084 0
13 -2085 0
432 -2085 0
-13 -432 2085 0
27 -2086 0
226 -2086 0
-27 -226 2086 0
229 -2087 0
436 -2087 0
-229 -436 2087 0
18 -2088 0
27 -2088 0
-18 -27 2088 0
22 -2089 0
438 -2089 0
-22 -438 2089 0
238 -2090 0
442 -2090 0
-238 -442 2090 0
4 -2091 0
36 -2091 0
-4 -36 2091 0
31 -2092 0
444 -2092 0
-31 -444 2092 0
40 -2093 0
242 -2093 0
-40 -242 2093 0
234 -2094 0
448 -2094 0
-234 -448 2094 0
229 -2095 0
449 -2095 0
-229 -449 2095 0
35 -2096 0
40 -2096 0
-35 -40 2096 0
26 -2097 0
451 -2097 0
-26 -451 2097 0
22 -2098 0
452 -2098 0
-22 -452 2098 0
245 -2099 0
456 -2099 0
-245 -456 2099 0
238 -2100 0
457 -2100 0
-238 -457 2100 0
4 -2101 0
49 -2101 0
-4 -49 2101 0
39 -2102 0
459 -2102 0
-39 -459 2102 0
31 -2103 0
460 -2103 0
-31 -460 2103 0
253 -2104 0
53 -2104 0
-253 -53 2104 0
229 -2105 0
464 -2105 0
-229 -464 2105 0
249 -2106 0
465 -2106 0
-249 -465 2106 0
48 -2107 0
53 -2107 0
-48 -53 2107 0
22 -2108 0
467 -2108 0
-22 -467 2108 0
44 -2109 0
468 -2109 0
-44 -468 2109 0
238 -2110 0
472 -2110 0
-238 -472 2110 0
260 -2111 0
473 -2111 0
-260 -473 2111 0
62 -2112 0
4 -2112 0
-62 -4 2112 0
31 -2113 0
475 -2113 0
-31 -475 2113 0
57 -2114 0
476 -2114 0
-57 -476 2114 0
264 -2115 0
70 -2115 0
-264 -70 2115 0
256 -2116 0
480 -2116 0
-256 -480 2116 0
267 -2117 0
481 -2117 0
-267 -481 2117 0
61 -2118 0
70 -2118 0
-61 -70 2118 0
52 -2119 0
483 -2119 0
-52 -483 2119 0
65 -2120 0
484 -2120 0
-65 -484 2120 0
271 -2121 0
488 -2121 0
-271 -488 2121 0
275 -2122 0
489 -2122 0
-275 -489 2122 0
79 -2123 0
4 -2123 0
-79 -4 2123 0
69 -2124 0
491 -2124 0
-69 -491 2124 0
74 -2125 0
492 -2125 0
-74 -492 2125 0
91 -2126 0
279 -2126 0
-91 -279 2126 0
229 -2127 0
496 -2127 0
-229 -496 2127 0
286 -2128 0
497 -2128 0
-286 -497 2128 0
78 -2129 0
91 -2129 0
-78 -91 2129 0
22 -2130 0
499 -2130 0
-22 -499 2130 0
86 -2131 0
500 -2131 0
-86 -500 2131 0
238 -2132 0
504 -2132 0
-238 -504 2132 0
298 -2133 0
505 -2133 0
-298 -505 2133 0
104 -2134 0
4 -2134 0
-104 -4 2134 0
31 -2135 0
507 -2135 0
-31 -507 2135 0
99 -2136 0
508 -2136 0
-99 -508 2136 0
108 -2137 0
302 -2137 0
-108 -302 2137 0
290 -2138 0
512 -2138 0
-290 -512 2138 0
282 -2139 0
513 -2139 0
-282 -513 2139 0
267 -2140 0
514 -2140 0
-267 -514 2140 0
108 -2141 0
103 -2141 0
-108 -103 2141 0
90 -2142 0
516 -2142 0
-90 -516 2142 0
82 -2143 0
517 -2143 0
-82 -517 2143 0
65 -2144 0
518 -2144 0
-65 -518 2144 0
294 -2145 0
523 -2145 0
-294 -523 2145 0
275 -2146 0
524 -2146 0
-275 -524 2146 0
117 -2147 0
4 -2147 0
-117 -4 2147 0
107 -2148 0
526 -2148 0
-107 -526 2148 0
95 -2149 0
527 -2149 0
-95 -527 2149 0
74 -2150 0
528 -2150 0
-74 -528 2150 0
121 -2151 0
316 -2151 0
-121 -316 2151 0
229 -2152 0
532 -2152 0
-229 -532 2152 0
311 -2153 0
533 -2153 0
-311 -533 2153 0
286 -2154 0
534 -2154 0
-286 -534 2154 0
121 -2155 0
116 -2155 0
-121 -116 2155 0
22 -2156 0
536 -2156 0
-22 -536 2156 0
112 -2157 0
537 -2157 0
-112 -537 2157 0
86 -2158 0
538 -2158 0
-86 -538 2158 0
238 -2159 0
542 -2159 0
-238 -542 2159 0
323 -2160 0
543 -2160 0
-323 -543 2160 0
298 -2161 0
544 -2161 0
-298 -544 2161 0
134 -2162 0
4 -2162 0
-134 -4 2162 0
31 -2163 0
546 -2163 0
-31 -546 2163 0
125 -2164 0
547 -2164 0
-125 -547 2164 0
99 -2165 0
548 -2165 0
-99 -548 2165 0
331 -2166 0
142 -2166 0
-331 -142 2166 0
319 -2167 0
552 -2167 0
-319 -552 2167 0
267 -2168 0
553 -2168 0
-267 -553 2168 0
327 -2169 0
554 -2169 0
-327 -554 2169 0
142 -2170 0
133 -2170 0
-142 -133 2170 0
120 -2171 0
556 -2171 0
-120 -556 2171 0
65 -2172 0
557 -2172 0
-65 -557 2172 0
129 -2173 0
558 -2173 0
-129 -558 2173 0
275 -2174 0
563 -2174 0
-275 -563 2174 0
334 -2175 0
564 -2175 0
-334 -564 2175 0
155 -2176 0
4 -2176 0
-155 -4 2176 0
141 -2177 0
566 -2177 0
-141 -566 2177 0
74 -2178 0
567 -2178 0
-74 -567 2178 0
137 -2179 0
568 -2179 0
-137 -568 2179 0
353 -2180 0
159 -2180 0
-353 -159 2180 0
229 -2181 0
572 -2181 0
-229 -572 2181 0
286 -2182 0
573 -2182 0
-286 -573 2182 0
349 -2183 0
574 -2183 0
-349 -574 2183 0
159 -2184 0
154 -2184 0
-159 -154 2184 0
22 -2185 0
576 -2185 0
-22 -576 2185 0
86 -2186 0
577 -2186 0
-86 -577 2186 0
150 -2187 0
578 -2187 0
-150 -578 2187 0
238 -2188 0
582 -2188 0
-238 -582 2188 0
298 -2189 0
583 -2189 0
-298 -583 2189 0
364 -2190 0
584 -2190 0
-364 -584 2190 0
172 -2191 0
4 -2191 0
-172 -4 2191 0
31 -2192 0
586 -2192 0
-31 -586 2192 0
99 -2193 0
587 -2193 0
-99 -587 2193 0
167 -2194 0
588 -2194 0
-167 -588 2194 0
-368 -2195 0
-176 -2195 0
368 176 2195 0
356 -2196 0
592 -2196 0
-356 -592 2196 0
344 -2197 0
593 -2197 0
-344 -593 2197 0
327 -2198 0
267 -2198 0
-327 -267 2198 0
594 -2199 0
595 -2199 0
-594 -595 2199 0
176 -2200 0
171 -2200 0
-176 -171 2200 0
158 -2201 0
597 -2201 0
-158 -597 2201 0
146 -2202 0
598 -2202 0
-146 -598 2202 0
65 -2203 0
129 -2203 0
-65 -129 2203 0
599 -2204 0
600 -2204 0
-599 -600 2204 0
371 -2205 0
604 -2205 0
-371 -604 2205 0
360 -2206 0
605 -2206 0
-360 -605 2206 0
185 -2207 0
4 -2207 0
-185 -4 2207 0
175 -2208 0
609 -2208 0
-175 -609 2208 0
163 -2209 0
610 -2209 0
-163 -610 2209 0
74 -2210 0
137 -2210 0
-74 -137 2210 0
611 -2211 0
612 -2211 0
-611 -612 2211 0
189 -2212 0
385 -2212 0
-189 -385 2212 0
229 -2213 0
616 -2213 0
-229 -616 2213 0
381 -2214 0
617 -2214 0
-381 -617 2214 0
349 -2215 0
286 -2215 0
-349 -286 2215 0
618 -2216 0
619 -2216 0
-618 -619 2216 0
189 -2217 0
184 -2217 0
-189 -184 2217 0
22 -2218 0
621 -2218 0
-22 -621 2218 0
180 -2219 0
622 -2219 0
-180 -622 2219 0
86 -2220 0
150 -2220 0
-86 -150 2220 0
623 -2221 0
624 -2221 0
-623 -624 2221 0
238 -2222 0
628 -2222 0
-238 -628 2222 0
392 -2223 0
629 -2223 0
-392 -629 2223 0
364 -2224 0
298 -2224 0
-364 -298 2224 0
630 -2225 0
631 -2225 0
-630 -631 2225 0
198 -2226 0
4 -2226 0
-198 -4 2226 0
31 -2227 0
633 -2227 0
-31 -633 2227 0
193 -2228 0
634 -2228 0
-193 -634 2228 0
99 -2229 0
167 -2229 0
-99 -167 2229 0
635 -2230 0
636 -2230 0
-635 -636 2230 0
344 -2231 0
381 -2231 0
-344 -381 2231 0
327 -2232 0
642 -2232 0
-327 -642 2232 0
641 -2233 0
643 -2233 0
-641 -643 2233 0
202 -2234 0
197 -2234 0
-202 -197 2234 0
188 -2235 0
645 -2235 0
-188 -645 2235 0
65 -2236 0
646 -2236 0
-65 -646 2236 0
180 -2237 0
146 -2237 0
-180 -146 2237 0
129 -2238 0
648 -2238 0
-129 -648 2238 0
647 -2239 0
649 -2239 0
-647 -649 2239 0
406 -2240 0
653 -2240 0
-406 -653 2240 0
275 -2241 0
654 -2241 0
-275 -654 2241 0
360 -2242 0
392 -2242 0
-360 -392 2242 0
334 -2243 0
656 -2243 0
-334 -656 2243 0
655 -2244 0
657 -2244 0
-655 -657 2244 0
207 -2245 0
4 -2245 0
-207 -4 2245 0
201 -2246 0
659 -2246 0
-201 -659 2246 0
74 -2247 0
660 -2247 0
-74 -660 2247 0
193 -2248 0
163 -2248 0
-193 -163 2248 0
137 -2249 0
662 -2249 0
-137 -662 2249 0
661 -2250 0
663 -2250 0
-661 -663 2250 0
410 -2251 0
667 -2251 0
-410 -667 2251 0
229 -2252 0
668 -2252 0
-229 -668 2252 0
286 -2253 0
669 -2253 0
-286 -669 2253 0
406 -2254 0
388 -2254 0
-406 -388 2254 0
381 -2255 0
671 -2255 0
-381 -671 2255 0
349 -2256 0
672 -2256 0
-349 -672 2256 0
670 -2257 0
673 -2257 0
-670 -673 2257 0
667 -2258 0
206 -2258 0
-667 -206 2258 0
22 -2259 0
675 -2259 0
-22 -675 2259 0
86 -2260 0
676 -2260 0
-86 -676 2260 0
201 -2261 0
188 -2261 0
-201 -188 2261 0
180 -2262 0
678 -2262 0
-180 -678 2262 0
150 -2263 0
679 -2263 0
-150 -679 2263 0
677 -2264 0
680 -2264 0
-677 -680 2264 0
238 -2265 0
685 -2265 0
-238 -685 2265 0
298 -2266 0
686 -2266 0
-298 -686 2266 0
410 -2267 0
-667 -2267 0
-410 667 2267 0
406 -2268 0
688 -2268 0
-406 -688 2268 0
392 -2269 0
689 -2269 0
-392 -689 2269 0
364 -2270 0
690 -2270 0
-364 -690 2270 0
687 -2271 0
691 -2271 0
-687 -691 2271 0
4 -2272 0
684 -2272 0
-4 -684 2272 0
31 -2273 0
693 -2273 0
-31 -693 2273 0
99 -2274 0
694 -2274 0
-99 -694 2274 0
-667 -2275 0
206 -2275 0
667 -206 2275 0
201 -2276 0
696 -2276 0
-201 -696 2276 0
193 -2277 0
697 -2277 0
-193 -697 2277 0
167 -2278 0
698 -2278 0
-167 -698 2278 0
695 -2279 0
699 -2279 0
-695 -699 2279 0
